
Gurobi 9.1.1 (mac64, gurobi_cl) logging started Sat Mar  6 16:13:02 2021

Academic license - for non-commercial use only - expires 2021-04-06
Using license file /Users/agnese/gurobi.lic
Set parameter LogFile to value gurobi.log

Gurobi Optimizer version 9.1.1 build v9.1.1rc0 (mac64)
Copyright (c) 2020, Gurobi Optimization, LLC


Error 10003: Unable to open file '' for input


Gurobi 9.1.1 (mac64, gurobi_cl) logging started Sat Mar  6 16:13:11 2021

Academic license - for non-commercial use only - expires 2021-04-06
Using license file /Users/agnese/gurobi.lic
Set parameter LogFile to value gurobi.log

Gurobi Optimizer version 9.1.1 build v9.1.1rc0 (mac64)
Copyright (c) 2020, Gurobi Optimization, LLC

Read LP format model from file /Users/agnese/Documents/KTH-Work/GitHub_repositories/KTH-dESA/GLUCOSE/results/FINAL_2060/4.2_2Degree/LowActivLimFF_noHP/new3/newLowActivLimitFF_3.lp
Reading time = 4.60 seconds
cost: 1097424 rows, 1087932 columns, 1788359 nonzeros
Thread count: 2 physical cores, 4 logical processors, using up to 4 threads
Optimize a model with 1097424 rows, 1087932 columns and 1788359 nonzeros
Model fingerprint: 0x399245fd
Coefficient statistics:
  Matrix range     [2e-08, 4e+11]
  Objective range  [7e-08, 4e+11]
  Bounds range     [0e+00, 0e+00]
  RHS range        [1e-04, 1e+06]
Warning: Model contains large matrix coefficient range
Warning: Model contains large objective coefficients
         Consider reformulating model or setting NumericFocus parameter
         to avoid numerical issues.

Concurrent LP optimizer: dual simplex and barrier
Showing barrier log only...

Presolve removed 1071599 rows and 1069788 columns
Presolve time: 1.70s
Presolved: 25825 rows, 18337 columns, 353601 nonzeros

Ordering time: 0.75s

Barrier statistics:
 AA' NZ     : 1.307e+06
 Factor NZ  : 7.110e+06 (roughly 80 MBytes of memory)
 Factor Ops : 5.267e+09 (less than 1 second per iteration)
 Threads    : 1

                  Objective                Residual
Iter       Primal          Dual         Primal    Dual     Compl     Time
   0   1.33157279e+21 -3.84956127e+17  2.46e+09 2.08e+12  9.26e+16     3s
   1   7.16761756e+20 -5.26189990e+17  2.42e+09 1.98e+12  9.03e+16     4s
   2   7.01656202e+20 -9.21993515e+17  1.81e+09 1.77e+12  7.38e+16     5s
   3   3.19474833e+20 -3.38297941e+18  7.37e+08 7.27e+11  3.73e+16     5s
   4   1.13865985e+20 -4.65656648e+18  2.33e+08 8.35e+10  1.31e+16     6s
   5   8.49413201e+18 -3.96083920e+18  1.70e+07 6.01e+07  1.06e+15     6s
   6   1.53122051e+18 -2.53461781e+18  3.07e+06 1.57e+07  2.20e+14     7s
   7   8.89939703e+17 -1.90184436e+18  1.82e+06 9.84e+06  1.34e+14     7s
   8   2.34489304e+17 -9.88820802e+17  4.70e+05 2.76e+06  4.37e+13     8s
   9   6.53518598e+16 -3.80054711e+17  1.32e+05 6.90e+05  1.39e+13     9s
  10   2.11375782e+16 -1.74472930e+17  4.22e+04 2.90e+05  5.51e+12     9s
  11   7.69149404e+15 -4.57900996e+16  1.49e+04 6.27e+04  1.64e+12    10s
  12   3.34742189e+15 -8.85649808e+15  6.40e+03 7.45e+03  4.82e+11    10s
  13   7.99386949e+14 -1.81364104e+15  1.48e+03 3.67e+02  1.06e+11    11s
  14   1.72692084e+14 -5.79442161e+14  2.87e+02 2.69e+01  2.48e+10    12s
  15   4.04712190e+13 -2.44569187e+14  1.39e+01 5.26e+00  7.50e+09    12s
  16   6.92606105e+12 -1.00051778e+14  2.29e+00 1.57e+00  2.36e+09    13s
  17   3.28960596e+11 -1.11720091e+13  7.32e-02 9.20e-02  2.37e+08    14s
  18   1.37424249e+10 -1.01425780e+12  2.03e-08 7.81e-03  2.10e+07    14s
  19   4.89831130e+09 -9.31528325e+10  2.43e-08 4.88e-04  2.01e+06    15s
  20   1.18753730e+09 -2.42674301e+10  4.34e-09 2.44e-04  5.21e+05    16s
  21   2.80380261e+08 -2.83496002e+09  3.33e-09 4.88e-04  6.37e+04    16s
  22   6.90508509e+07 -1.96666482e+08  4.78e-09 2.44e-04  5.44e+03    17s
  23   4.24888489e+06 -1.14584546e+07  2.40e-09 4.88e-04  3.21e+02    18s
  24   5.35775223e+05 -9.07472465e+05  2.23e-09 4.88e-04  2.95e+01    19s
  25   3.23887319e+05  1.38995847e+05  2.14e-09 4.88e-04  3.78e+00    19s
  26   3.07687297e+05  1.74333168e+05  1.40e-09 4.88e-04  2.73e+00    20s
  27   2.72349965e+05  2.21147557e+05  1.98e-09 2.44e-04  1.05e+00    21s
  28   2.57687610e+05  2.39513708e+05  9.60e-10 2.44e-04  3.72e-01    21s
  29   2.50535127e+05  2.44962626e+05  1.08e-09 2.44e-04  1.14e-01    22s
  30   2.48090012e+05  2.47105896e+05  3.92e-09 2.44e-04  2.02e-02    23s
  31   2.47681758e+05  2.47599443e+05  9.04e-09 4.88e-04  1.82e-03    24s
  32   2.47652824e+05  2.47616995e+05  4.46e-09 4.88e-04  8.71e-04    25s
  33   2.47639755e+05  2.47637841e+05  3.69e-08 2.44e-04  8.31e-05    26s
  34   2.47639196e+05  2.47637796e+05  2.71e-08 2.44e-04  6.06e-05    26s
  35   2.47637956e+05  2.47637586e+05  2.51e-08 2.44e-04  1.47e-05    27s
  36   2.47637669e+05  2.47637613e+05  2.10e-09 2.44e-04  1.32e-06    28s
  37   2.47637644e+05  2.47637634e+05  3.19e-09 6.10e-05  2.58e-07    29s
  38   2.47637637e+05  2.47637637e+05  1.76e-07 2.44e-04  1.49e-08    29s
  39   2.47637637e+05  2.47637637e+05  7.46e-08 4.88e-04  2.41e-09    30s

Barrier solved model in 39 iterations and 30.04 seconds
Optimal objective 2.47637637e+05

Crossover log...

    6609 DPushes remaining with DInf 0.0000000e+00                30s
       0 DPushes remaining with DInf 0.0000000e+00                30s

    4122 PPushes remaining with PInf 6.3286134e-02                30s
       0 PPushes remaining with PInf 3.6121905e-03                31s

  Push phase complete: Pinf 3.6121905e-03, Dinf 4.2799900e-01     31s

Iteration    Objective       Primal Inf.    Dual Inf.      Time
    7829    2.4763763e+05   0.000000e+00   4.279990e-01     31s
Extra simplex iterations after uncrush: 10
    8078    2.4763764e+05   0.000000e+00   0.000000e+00     33s

Solved with barrier
Solved in 8078 iterations and 33.29 seconds
Optimal objective  2.476376371e+05

Wrote result file 'newLowActivLimitFF_3.sol'

